 # Version information for this restart file 
 # current date 2025-10-03 16:20:48.148
 # current working dir /home/jh-li/Developer/cp2kmd2g96/example
 # Program compiled at                              Mon Sep 15 19:06:45 CST 2025
 # Program compiled on                                           DESKTOP-1D9QDE1
 # Program compiled for                                                    local
 # Source code revision number                                       git:9635df4
 &GLOBAL
   EPS_CHECK_DIAG  9.9999999999999998E-013
   PRINT_LEVEL LOW
   PROJECT_NAME "H2O-64"
   RUN_TYPE MD
 &END GLOBAL
 &MOTION
   &MD
     ENSEMBLE NVE
     STEPS 10
     TIMESTEP  4.9999999999999994E-001
     STEP_START_VAL 10
     TIME_START_VAL  4.9999999999999982E+000
     ECONS_START_VAL -1.1007588181106162E+003
     TEMPERATURE  3.0000000000000000E+002
     &AVERAGES T
       &RESTART_AVERAGES
         ITIMES_START 1
         AVECPU  2.0854328020900720E+001
         AVEHUGONIOT  0.0000000000000000E+000
         AVETEMP_BARO  0.0000000000000000E+000
         AVEPOT -1.1010668160173052E+003
         AVEKIN  3.0070034549094238E-001
         AVETEMP  3.3142598855740283E+002
         AVEKIN_QM  0.0000000000000000E+000
         AVETEMP_QM  0.0000000000000000E+000
         AVEVOL  1.2909542132085600E+004
         AVECELL_A  2.3458682268415796E+001
         AVECELL_B  2.3458682268415796E+001
         AVECELL_C  2.3458682268415796E+001
         AVEALPHA  9.0000000000000000E+001
         AVEBETA  9.0000000000000000E+001
         AVEGAMMA  9.0000000000000000E+001
         AVE_ECONS -1.0896371957584734E+001
         AVE_PRESS  0.0000000000000000E+000
         AVE_PXX  0.0000000000000000E+000
       &END RESTART_AVERAGES
     &END AVERAGES
   &END MD
   &PRINT
     &TRAJECTORY SILENT
       &EACH
         MD 1
       &END EACH
     &END TRAJECTORY
     &CELL SILENT
       &EACH
         MD 1
       &END EACH
     &END CELL
     &VELOCITIES SILENT
       &EACH
         MD 1
       &END EACH
     &END VELOCITIES
     &FORCES SILENT
       &EACH
         MD 1
       &END EACH
     &END FORCES
     &STRESS SILENT
       &EACH
         MD 1
       &END EACH
     &END STRESS
     &RESTART SILENT
       BACKUP_COPIES 0
       &EACH
         MD 1
       &END EACH
     &END RESTART
     &RESTART_HISTORY OFF
     &END RESTART_HISTORY
   &END PRINT
 &END MOTION
 &FORCE_EVAL
   METHOD QS
   &DFT
     BASIS_SET_FILE_NAME GTH_BASIS_SETS
     POTENTIAL_FILE_NAME POTENTIAL
     &SCF
       SCF_GUESS ATOMIC
       IGNORE_CONVERGENCE_FAILURE T
       &OT T
         MINIMIZER DIIS
       &END OT
       &PRINT
         &RESTART OFF
         &END RESTART
       &END PRINT
     &END SCF
     &QS
       EPS_DEFAULT  9.9999999999999998E-013
       EXTRAPOLATION PS
       EXTRAPOLATION_ORDER 3
     &END QS
     &MGRID
       CUTOFF  2.8000000000000000E+002
       REL_CUTOFF  3.0000000000000000E+001
     &END MGRID
     &XC
       DENSITY_CUTOFF  1.0000000000000000E-010
       GRADIENT_CUTOFF  1.0000000000000000E-010
       TAU_CUTOFF  1.0000000000000000E-010
       &XC_FUNCTIONAL NO_SHORTCUT
         &PADE T
         &END PADE
       &END XC_FUNCTIONAL
     &END XC
   &END DFT
   &SUBSYS
     &CELL
       A  1.2413800000000002E+001  0.0000000000000000E+000  0.0000000000000000E+000
       B  0.0000000000000000E+000  1.2413800000000002E+001  0.0000000000000000E+000
       C  0.0000000000000000E+000  0.0000000000000000E+000  1.2413800000000002E+001
       MULTIPLE_UNIT_CELL 1 1 1
     &END CELL
     &COORD
       O  1.2265692089483844E+001  1.3554390129939744E+000  1.0875425741210494E+001
       O  6.4523125712781990E+000  3.7059030017229291E+000  8.6472703373298856E+000
       O  7.7679434805559222E-002  2.1684363409613145E+000  8.2608499727954694E+000
       O  1.2086328917682129E+001  2.6383236471453380E+000  2.1708319631149617E+000
       O  1.2290563434792711E+001  4.1705987030841749E+000  1.2102197401500318E+001
       O  7.2035546534514490E+000  9.4146440982948543E-001  4.7596753308531561E+000
       O  8.3332259924712488E+000  7.2077559238205398E+000  4.6827252174466132E+000
       O  1.2331820354972825E+001  1.1521085584601929E+001  8.0815267568455571E+000
       O  3.2742305248732015E+000  4.4591006237005448E+000  9.1745323461745834E+000
       O  2.8601657947011452E+000  3.7871321994316656E+000  6.5410904120532871E+000
       O  1.3797135980520201E+000  6.3917883108529487E+000  5.6509499049341516E-001
       O  1.8717778176469038E+000  8.6859327223312199E+000  2.0908475002935440E+000
       O  3.7724126920715597E+000  1.2107291686118543E+001  8.6205990989004277E+000
       O  6.4253612010430201E+000  3.6667844669333647E+000  2.7875787966086896E+000
       O  1.9996801569167735E+000  1.8525818618604037E+000  4.8671305057777765E+000
       O  8.2870264289446336E+000  2.4221945186206275E+000  6.9417301194043057E+000
       O  5.7524965525745255E+000  3.3354063225409103E+000  1.2486444073907032E+001
       O  1.1313041873264154E+001  5.6568394091369480E+000  2.2481538681311051E+000
       O  4.2889086332743789E+000  2.1146774663679926E+000  1.0586400462686310E+001
       O  5.3988008779579957E+000  3.3584215761664251E+000  5.4859980676067144E+000
       O  6.5093803283322602E+000  1.1870555907452898E+001  7.1448610258288614E-001
       O  3.2525927590518529E+000  2.3434818290723127E+000  2.4132514479853917E+000
       O  8.0086796499287018E+000  6.3565335203086244E+000  7.4977752039617629E+000
       O  5.9288585788258601E+000  6.5082801666047994E+000  1.2195796701642250E+001
       O  1.0610385294795346E+001  1.1861264429738819E+001  1.2200574174939787E+001
       O  9.3403690756567244E+000  3.6890996107161866E+000  3.5273423653479901E+000
       O  1.1111278086576313E+000  5.7890355206449620E+000  6.6473009501984279E+000
       O  8.0194995343339102E+000  3.3269739508476044E+000  1.0869758841489865E+001
       O  1.2376084676796069E+001  9.6748049821029216E+000  1.1772442429127375E+001
       O  4.2098962719508464E+000  7.0914037241397239E+000  8.1403049780542087E+000
       O  3.7839656891277218E+000  8.2290488153631642E+000  1.1585038748792421E+001
       O  1.1076296436002661E+001  4.5429033328727213E+000  7.8327522122962652E+000
       O  1.0435269965490813E+001  8.4217711221837988E+000  1.0328413587522363E+000
       O  1.9828015281270792E+000  6.4005825276161161E+000  1.0353823655978761E+001
       O  4.7041682767470796E+000  5.6227133611178537E-001  5.6097237226912329E+000
       O  8.7178718108888020E+000  1.2242115811187450E+001  8.0976567639229842E+000
       O  2.6327341025096009E+000  1.0520521873273243E+001  8.2905623926828417E-002
       O  7.2399931187462654E+000  1.0511642196931378E+001  4.2432664330034964E+000
       O  2.2807064781623168E+000  2.7612056427375187E-001  1.0807250569989076E+001
       O  8.8632061138829474E+000  9.4642072500195906E-001  1.3400856795968015E+000
       O  1.9443088048744694E+000  8.0893935868697060E+000  7.5355059867711915E+000
       O  9.6598248299593639E+000  8.0355046451626198E+000  9.8565400345210517E+000
       O  1.0903669851584317E+001  8.3307153998976542E+000  6.4773146916033024E+000
       O  3.5124567442238486E+000  4.8693650210825501E+000  1.5451764009708087E+000
       O  7.9775830453596601E+000  8.6026723333308635E+000  1.2050849513769620E+001
       O  8.3694035479509967E+000  1.0019371052443583E+001  6.6836141760233119E+000
       O  5.6546743218575761E+000  6.0810664230940228E+000  5.5283846573826940E+000
       O  1.1742547847645838E+001  1.6241840639034830E+000  5.0859575162076247E+000
       O  9.7585719615146029E+000  9.8110347715520287E+000  3.5364867774940865E+000
       O  3.9627876574401117E+000  1.0548914651573369E+001  4.6848634346388209E+000
       O  9.0110847254979232E-001  6.3699180308685897E+000  4.0614677068443763E+000
       O  6.8825857356123539E+000  6.4084220847946298E+000  2.5046902581437056E+000
       O  3.8180799995398238E+000  6.6391276583282179E+000  3.7786506828599262E+000
       O  6.5639457974901454E+000  8.3081696931564810E+000  8.8142644496194862E+000
       O  9.7792965800932166E+000  1.3440562766325495E-001  3.8518038249085209E+000
       O  4.1040770115661687E+000  1.1645978558721671E+001  2.2167390496172565E+000
       O  5.3225394392110328E+000  8.7370879819811123E+000  2.7520568939066870E+000
       O  1.0008064086737280E+001  5.3735087324374113E+000  5.3757728940151095E+000
       O  1.2260297782909007E+001  8.6464340629361391E+000  3.9709777917873010E+000
       O  2.3431345497118046E+000  1.0747243885368647E+001  6.8128217267252706E+000
       O  7.0016612916654593E+000  6.6240597666024847E-001  1.0534341561687697E+001
       O  5.1725047982214125E+000  1.0218495319125831E+001  1.0357205957141868E+001
       O  1.1186316801594888E+001  5.8851524495735283E+000  1.0299193203866336E+001
       O  1.2277001782589821E+001  8.9569716794256706E+000  9.0707884188585624E+000
       H  1.2357840653884761E+001  2.3335995753203767E+000  1.1187202568867500E+001
       H  1.1946181003856596E+001  1.5338243304149188E+000  9.8820686313884956E+000
       H  5.5871540556992612E+000  3.4492983737441478E+000  9.0442905792519674E+000
       H  6.8930493554928081E+000  3.0239782285812140E+000  7.9852283560226933E+000
       H -1.4374297116712295E-001  1.5098214846093319E+000  7.5263531243300950E+000
       H -3.8865416711361372E-001  3.0530974754999258E+000  7.9298823362631952E+000
       H  1.2176354233150256E+001  2.9746344065134234E+000  1.1924463434438459E+000
       H  1.2991627169715075E+001  2.9143170210541913E+000  2.5155346727346792E+000
       H  1.1517585159651055E+001  4.3255122446516943E+000  1.1434691026738294E+001
       H  1.2784953658521552E+001  5.0635466714141355E+000  1.2040055000827042E+001
       H  6.9671401310510142E+000  1.7387343976932697E+000  4.1849967664893262E+000
       H  6.2296009063364375E+000  6.8946782722760880E-001  5.1579113656953517E+000
       H  7.7273594948751638E+000  7.2216808381009630E+000  5.4888761780274065E+000
       H  9.1691701765489455E+000  6.6296086345021381E+000  4.9460727574888406E+000
       H  1.2846883768257074E+001  1.1781070688346688E+001  8.9005192602397596E+000
       H  1.1983330930252830E+001  1.0563456761597427E+001  8.3168613221516186E+000
       H  3.5249173108174161E+000  3.8402074967245072E+000  9.9510006399882336E+000
       H  2.4297337650192690E+000  4.9330989925182225E+000  9.5245628999132510E+000
       H  2.1731627523336368E+000  4.5583640086451789E+000  6.3013579985287356E+000
       H  2.8563500932205934E+000  3.8576048156098346E+000  7.5841394106023516E+000
       H  1.1402120515030918E+000  7.1967347480517052E+000  1.1594244541641814E+000
       H  2.2451038169251318E+000  6.0044688738692455E+000  1.0028737587386740E+000
       H  2.8159635337969928E+000  8.9701748198840203E+000  2.2995199891598643E+000
       H  1.3289544665050177E+000  8.9939926467802778E+000  2.8983257079406304E+000
       H  4.4550218369058063E+000  1.1540339425004834E+001  9.1644203320304118E+000
       H  3.0505860859907519E+000  1.2474023132571936E+001  9.2862357274678100E+000
       H  5.8591510063959795E+000  3.4580809397759533E+000  3.6616773633304018E+000
       H  5.8328342793245858E+000  3.4003555439717110E+000  1.9823495664230522E+000
       H  9.5573469726091942E-001  1.6451477306438664E+000  4.8407733836355078E+000
       H  2.2282991647296027E+000  2.4813299829903679E+000  5.6872650230008270E+000
       H  8.4431290012349365E+000  1.6050270153590502E+000  7.5442513472470996E+000
       H  8.0660702671726288E+000  2.0137128293824702E+000  6.0338191030246033E+000
       H  5.2179579256217838E+000  2.8944435585785908E+000  1.1676379626023044E+001
       H  6.6808372388703514E+000  3.4137338960725625E+000  1.1974227321955267E+001
       H  1.0787628803148612E+001  6.5181395670640425E+000  2.0987991922648241E+000
       H  1.1679773573102722E+001  5.3602522151480052E+000  1.3423877172523120E+000
       H  3.4353203684213036E+000  1.5422281194350103E+000  1.0899348788959701E+001
       H  4.8360131199367666E+000  1.4266306188279603E+000  1.0089887937304754E+001
       H  4.3860802582012086E+000  3.3639520802577900E+000  5.6883523933746174E+000
       H  5.6851424648166002E+000  4.3694414775797314E+000  5.5473743673657214E+000
       H  6.2905172776239988E+000  1.1824099733743504E+001  1.7188529435627713E+000
       H  5.6254822935037341E+000  1.2118652077611635E+001  3.2827489265316828E-001
       H  3.5448338646092754E+000  1.3905272139792142E+000  2.1815170599119189E+000
       H  2.6082617908460910E+000  2.2011793681994494E+000  3.2448585926829381E+000
       H  7.1214310944131549E+000  5.8746986475801242E+000  7.5240902705210058E+000
       H  8.6555160452220932E+000  5.7349833608788128E+000  7.0296645633611297E+000
       H  6.0004465275624730E+000  5.6511979030142045E+000  1.1673025686981088E+001
       H  6.2576534574137748E+000  6.3249880564336101E+000  1.3168261180250942E+001
       H  1.1110393485510324E+001  1.2636559250997527E+001  1.1695509562620506E+001
       H  1.0264574453193690E+001  1.2297166054266814E+001  1.3044673119308946E+001
       H  9.9063257583777951E+000  4.0523254539285460E+000  2.7328096710840089E+000
       H  8.5320976562320396E+000  3.4662435851520716E+000  2.9418258347993662E+000
       H  1.4549325922399527E+000  6.6684406032632486E+000  7.1063381287412923E+000
       H  1.0013233336721181E+000  6.1758231958583183E+000  5.6553319488934024E+000
       H  7.9834584102584643E+000  3.6965662970359734E+000  9.9295362401127374E+000
       H  8.0702893407890794E+000  2.3148727995371701E+000  1.0750118168091385E+001
       H  1.1741851247339193E+001  1.0457041172521961E+001  1.2099135806995017E+001
       H  1.2145140467202641E+001  8.9346530857772990E+000  1.2412210742863383E+001
       H  3.3373535314780272E+000  7.6121200308658512E+000  7.8531045761953360E+000
       H  3.8438071109320067E+000  6.2417161568829806E+000  8.6114175129803119E+000
       H  3.1132077807627798E+000  7.6196920981196117E+000  1.1070308623805440E+001
       H  4.4752997918961794E+000  7.6309327249747039E+000  1.2076616644959623E+001
       H  1.1595109347937802E+001  4.9846383472203613E+000  7.0588447442759943E+000
       H  1.0300198428132514E+001  4.1359917521737009E+000  7.3179795841143109E+000
       H  1.0066803629046012E+001  8.9449101926862955E+000  1.8648409458411637E+000
       H  9.5721275817981262E+000  8.2654871620130717E+000  4.9820470823495822E-001
       H  1.3188214514412726E+000  6.6901027276312259E+000  9.6503048603152823E+000
       H  1.4021624816999492E+000  6.4512365186913234E+000  1.1227722789148210E+001
       H  4.1225373888748855E+000  1.3301382656569150E+000  5.2661059713493623E+000
       H  4.6863100279917660E+000  6.4323888154181330E-001  6.6181558656201362E+000
       H  9.4703533710538501E+000  1.2334177792057993E+001  8.7409520154254761E+000
       H  8.8486737260973616E+000  1.1353175343935574E+001  7.5414016813733475E+000
       H  1.7346635260635270E+000  1.0023247752454518E+001  1.4531246290954497E-001
       H  3.3374323737177489E+000  9.8445600332851164E+000 -2.3573946363622900E-001
       H  7.0505799823423390E+000  1.1506005604267211E+001  4.1255571139585880E+000
       H  6.4716019298317766E+000  9.9354966266939755E+000  3.7910911532754432E+000
       H  1.3268589592362263E+000  5.8377393429467650E-001  1.1128929736800385E+001
       H  2.5223619020803043E+000 -5.4513600115598781E-001  1.1460522258347325E+001
       H  8.7695024945574485E+000  1.8730405160142118E+000  9.9029984538986748E-001
       H  8.0908940305254049E+000  3.3984351975159793E-001  9.9164118000787771E-001
       H  1.1203607709262200E+000  8.3716512006967285E+000  8.1792323344820748E+000
       H  2.0883187077758834E+000  8.9941496096218856E+000  7.0138877035397247E+000
       H  8.9092455661170558E+000  7.7938840102126008E+000  9.2222118549505900E+000
       H  9.0650442925891763E+000  8.4492400512111612E+000  1.0614283870982675E+001
       H  1.0125293357174050E+001  7.6972294325291628E+000  6.4507709233844848E+000
       H  1.0499855152542116E+001  9.1992705817145417E+000  6.1555311709779303E+000
       H  3.4971231604226247E+000  3.9586904012091488E+000  2.1122844778198213E+000
       H  4.0584146620670145E+000  4.5845739999388186E+000  7.4299547661230914E-001
       H  7.3547300979718528E+000  9.3907717765804719E+000  1.2034662471099811E+001
       H  7.3341917810693511E+000  7.7711469163760931E+000  1.2054219542754312E+001
       H  7.8271815569078704E+000  1.0161811172290676E+001  5.7814619639501457E+000
       H  7.7120113817905525E+000  9.5092512996358742E+000  7.2843726304678169E+000
       H  5.2899463871917591E+000  6.4889429596087842E+000  6.3929757321017915E+000
       H  4.8678252868865384E+000  6.3175211180869688E+000  4.8313586361441647E+000
       H  1.1521862541305863E+001  2.1923283626794814E+000  4.2496614328186784E+000
       H  1.1222791846958861E+001  7.8414795598471043E-001  4.7829538343867917E+000
       H  8.8119942350243825E+000  9.6778779613694326E+000  3.9666686831545395E+000
       H  9.9342844970867059E+000  1.0814156988790822E+001  3.7816372858588192E+000
       H  3.1082289528960643E+000  1.0546326407174741E+001  5.2868803913860773E+000
       H  4.3132584907098535E+000  1.1455620653057336E+001  5.0610780320719657E+000
       H  4.2220406784344522E-001  7.3045102192428804E+000  3.8013135649950951E+000
       H  2.9772343931243589E-001  5.7724401932049316E+000  3.4526995513598377E+000
       H  7.5860591209707389E+000  6.5678847601551071E+000  3.2915836809334218E+000
       H  6.6758385347288911E+000  5.3831754309184321E+000  2.5200133494031753E+000
       H  3.8532534172202721E+000  6.3060046348715408E+000  2.8123783749729543E+000
       H  2.7953246440746220E+000  6.5485847389787306E+000  3.9537741358603453E+000
       H  5.5553176437624074E+000  8.0120599991626342E+000  8.6583941104737825E+000
       H  6.9993930795511812E+000  7.4780238970689936E+000  8.4104344163930111E+000
       H  9.5571588990620171E+000  7.3280446145740397E-001  3.0174818797277214E+000
       H  8.9237164310808499E+000  1.3437510586004664E-001  4.4076447871964719E+000
       H  3.8482457315654357E+000  1.1174438455173162E+001  1.3441470566667546E+000
       H  3.9626056228552664E+000  1.0964278466899243E+001  3.0102551897942691E+000
       H  5.9449661422373259E+000  7.8891857853102803E+000  2.7995741535953487E+000
       H  4.7652120121319506E+000  8.7229381074891990E+000  3.5906717261663594E+000
       H  1.0905815782847332E+001  5.5302201800695441E+000  4.9342869455834615E+000
       H  9.5033245323319946E+000  4.6732708376741643E+000  4.7171193166500416E+000
       H  1.1491942104118523E+001  9.0018887406770478E+000  3.3983649908355242E+000
       H  1.1959903629036566E+001  8.7851547644298194E+000  4.9401026898626341E+000
       H  2.9404439844265120E+000  1.1333326721637018E+001  7.4881123877716584E+000
       H  1.3993518978838617E+000  1.1120275827042043E+001  6.8063456551229811E+000
       H  7.2181951384397420E+000  1.2809608485302687E-001  9.7032371258698582E+000
       H  7.1648660378601399E+000  1.0772078745113729E-001  1.1367500988398692E+001
       H  4.8113412051048616E+000  9.3237474535628149E+000  1.0837702423611933E+001
       H  6.0816481698025147E+000  9.8060697913105148E+000  1.0186927365163909E+001
       H  1.0565212262638084E+001  6.7306908548542390E+000  1.0314443980529070E+001
       H  1.1239043366237766E+001  5.5938377372083172E+000  9.3143651163975925E+000
       H  1.2188456954752880E+001  8.9927460848985081E+000  1.0127821223536275E+001
       H  1.1415764242457234E+001  8.6329965781059599E+000  8.6365688433593757E+000
     &END COORD
     &VELOCITY
         2.4353373553068694E-004 -1.2006097603408503E-004  8.6380096433171408E-005
         5.1311970176818870E-005 -1.2708266182902735E-006 -1.4048482601019943E-005
        -1.3298767756831547E-004 -8.3910828188251392E-005 -1.7227772178986432E-004
         3.2311111386728881E-004 -2.8974228281676106E-004  2.2815855771514979E-004
         3.6807112800502800E-004 -1.6540691873197019E-004  8.2168021728000628E-005
         8.6843810086727972E-005 -1.6733145785058809E-004  2.3233906169978859E-004
        -1.9144732815079920E-004  3.6490306371283443E-005  1.7692428815661504E-004
        -2.7339212137287872E-004 -2.0181330183262224E-006 -2.5185283188841102E-004
        -2.9114797155905604E-004  1.4202524657102271E-004 -9.4207613539133237E-005
         4.9604684384574682E-005  1.9764986075223472E-004 -3.9675655903576144E-005
        -1.0338266296241467E-004  2.5533554886992204E-004 -1.7753567723140495E-004
         1.2393271803053763E-004 -5.1522817970966906E-005  2.4869105054342046E-004
         3.7171385610777745E-005  1.3912087635260085E-004 -2.6001104941670048E-004
        -9.0584380433399557E-005 -5.4256969625308244E-005  1.3571849163939893E-004
        -1.3532069032871516E-005  2.9312535024369942E-004 -1.1035216194274405E-004
         3.4365663856991447E-004  1.2592891248692514E-004  1.2984947778808568E-004
         3.1061310691065228E-005 -2.1491061234294340E-004  1.3642911352721720E-004
        -1.1197980598355178E-004  8.8708519144603261E-005  8.1551359031933529E-005
         7.2553977151279550E-005 -7.4882564044446789E-005 -3.7593240433260565E-005
        -3.9311008768549861E-005  7.7794970768289520E-005 -4.9503853884656799E-005
         1.3050850737604476E-004  3.2997372838899697E-005  2.3384938882122552E-004
        -2.3506710107119500E-004 -1.3038351983293243E-004 -7.8872779767331474E-005
         2.2656471396492750E-004  3.8984618397251570E-006 -1.0674489559241188E-004
        -4.8910812396728807E-004 -8.8250996364447548E-005  4.1168871691269652E-005
        -2.3516505104938609E-004  3.0141522877649834E-005 -4.3307021531022703E-005
         2.3874077440406738E-004  1.6479626532741516E-004 -6.5961174291006663E-006
         2.1570400417260480E-006 -3.6687604474726712E-004  1.9056449030257609E-005
         1.5263290746472813E-004 -4.5423683349813830E-005 -4.7828240976830101E-005
        -2.4361660474004980E-004 -1.5799538490133815E-004  1.4701044899578878E-004
        -4.6332302268092402E-005  6.6958418749224848E-005 -1.4093723620866048E-004
         7.0402526349447230E-005  1.4787938509732443E-004  2.3294646136924025E-004
        -1.0541845847059047E-004  9.0959878374613517E-005  1.4239486317090130E-004
         3.9447066267738867E-004  6.7697585290720511E-005  1.1078543440059223E-004
        -7.7642050384913906E-005 -1.2536442818800042E-004 -1.9896428319014968E-004
         4.0834731831121542E-004  1.4767279244526040E-004  2.0697580190816399E-005
        -2.3059415805921240E-004 -1.2069261926378752E-004  1.1528847271650611E-004
        -2.2453224222669519E-004  3.2508315210677785E-004 -1.1011175869108537E-004
        -2.5223464562393321E-005  3.9102949516325050E-004  1.6353834116956473E-004
         2.2717843320074552E-005 -6.2765751643760711E-006  4.4671040026060245E-005
        -2.2749659830498058E-004 -6.9576305529450694E-006  6.3788388339367289E-005
        -7.5841302715664446E-005  8.7087799010675563E-005 -2.6939094015435193E-004
        -1.5166914071606974E-004 -1.6482446184440231E-004 -8.8619423400554891E-005
         8.3255811712290148E-006 -5.3065384632253159E-005 -7.5044278369493101E-005
         6.6403553284776780E-005  1.1865592147203594E-004 -1.6876922794236860E-004
        -3.6854176964806832E-004 -4.4916679520509652E-004 -7.2212204732006934E-005
        -1.2514834925103258E-004 -2.1658705549783765E-004  1.4279407564135791E-005
         1.5301292386871979E-004  7.8212466730094110E-005 -2.6042789655686296E-004
         1.1597437781845744E-004  1.3153166326833750E-004  1.9714489352149674E-005
        -2.7586288463271431E-005  4.9135802994398998E-005 -8.2847135184612272E-005
         1.7533037837201231E-004 -1.0200057779528839E-004 -1.5955910874441420E-005
         9.1305293520093858E-006 -1.7063363096649883E-004 -1.2704533408442942E-004
         2.0532414020309062E-004 -1.8523108330601381E-004  1.5576953259494942E-004
        -9.5082342047854920E-005  3.8898283929230727E-004  6.8143354607701873E-005
        -3.3468517678478710E-005  1.1413973595552847E-004  4.8372670606421803E-005
        -3.2167308793053180E-004 -6.7373694365841199E-005 -3.3440505798259834E-004
        -1.0565699375045431E-004 -1.8612919958606547E-004 -4.1185047197436287E-005
         3.0227443463709942E-004 -1.9476822462739577E-008 -4.0898192675035500E-005
         3.4132859751375105E-004 -7.5666618756384959E-005  3.1369871723988169E-004
         4.8774504495622652E-006  9.5432986772751405E-005  4.0463993787763502E-005
        -7.3525642127059165E-005 -1.1023344657717516E-004 -1.6990266178386877E-004
        -9.5305467319657645E-005  1.5924492798463386E-004  1.0050784054441444E-004
         2.9577992716625960E-004 -2.0302338270998372E-004 -3.8000268467438578E-006
         3.3426751507577700E-005  2.9960856876930777E-005  2.2957098687349055E-005
         2.1247046210488995E-004 -1.8773508816885020E-004 -7.1323934924321210E-005
        -4.5158839412664988E-004 -3.6143060081111835E-005 -6.1976176340011789E-004
         9.6706711086717693E-004 -4.1494673937813843E-004 -1.4270244722154218E-003
         7.4657709739884247E-004  7.4979183343533049E-004 -2.9716006675350795E-005
         1.1944835030071074E-003 -2.4887952167661556E-004 -4.6965328166468430E-004
         3.3415678179139627E-004 -4.4057529886500226E-004 -4.5347033647276521E-004
         1.1012796130049317E-003  2.9083917957897776E-004 -1.2194190255008586E-003
         2.2415342339837134E-004  1.5937251548737434E-003 -3.7781211909872372E-004
         1.0073465758496450E-003 -6.8157982681038912E-004  2.6183752026161765E-004
        -6.9769183726560674E-005  2.4841597137270012E-005 -1.3349984304717084E-004
        -6.5395783730943916E-004 -1.1729839022692280E-004  1.7209949841814697E-004
        -6.3912725034406283E-004 -9.4833908168662272E-004 -2.5753189731562222E-004
        -3.9187509724991431E-004 -2.4417797176229974E-004 -5.0822500048130115E-004
         2.8904185304423077E-004 -2.0455475311204805E-003 -7.4488003298050576E-004
         3.8533435947308886E-004 -1.5649598638794000E-003 -8.1999331587777704E-004
         6.6163782211382696E-004 -2.0530137993851898E-004 -4.7022778534744954E-004
        -4.8571775236859753E-005 -1.4283455067279497E-003  8.4970777262895658E-004
        -5.1040502071977216E-004  9.0124041075953390E-004 -4.3717828657597788E-004
         2.7962496772940498E-004  1.1112791910421248E-004 -5.6980553869925832E-004
        -1.5080494509408522E-003  7.3672779723459676E-004 -5.7541529155209569E-006
         2.4475429619643410E-004  9.7437756641786423E-004 -4.8339679944487334E-004
        -8.5981680073149463E-005  5.9512037264580699E-004 -4.8949501768690042E-005
        -6.8266467565895428E-004 -5.5567223332407295E-004  7.1350489600408734E-004
         4.8033714494891006E-005  6.5011279416488869E-004 -7.7943973950651835E-004
         8.0491911068734112E-005 -7.8343749750676007E-004  7.2435736498416617E-004
         2.5839724573546334E-004  7.5578985180478606E-005 -5.8507007755818278E-004
         3.2468632062772687E-004 -2.7324024722186896E-004  2.5249479695644997E-004
        -1.0539062839216068E-003  5.0616494374358114E-004  7.1049452485628917E-004
         8.0541579375864776E-004 -1.4428395472895235E-004 -9.1111624630474072E-004
        -9.3901405504528930E-005 -1.7440336409662576E-004 -6.6695306718079659E-004
        -5.9667439632330875E-004  2.1020879938585986E-003 -1.6524975845655626E-004
        -5.9413689338451382E-004 -1.8314218672878881E-004 -3.0878549939991639E-004
        -1.1299139623860851E-004 -1.9706794257040718E-004  5.4164798331223548E-004
         3.7379192866933983E-004 -2.2187500989561944E-004 -3.6215118740020826E-004
        -5.2111287106798598E-004  8.9091209793984362E-004 -5.6207250900727843E-004
         6.7919292608318118E-004  1.3343181452890319E-004 -5.4958333088114331E-004
        -5.0955912352831829E-005 -7.8811310897819670E-004  5.3306738442259643E-004
        -8.4615276323834029E-005 -4.3969810879046945E-004 -1.5061331384950934E-003
         1.9621493943849591E-004  7.0658921104141230E-004  7.9834173949903313E-004
        -3.1086266728229384E-004  7.4710976671309441E-004  4.9983161014558711E-004
        -7.7088036732426957E-004  8.7923124001909071E-004  4.4906439902868368E-004
         4.7843808738377391E-004  2.0885304142011915E-004  9.9081078442192863E-004
         2.7383478088622063E-004 -1.2076470182539717E-005  2.0312636572743809E-003
         2.2238602224692325E-004  4.5732113710456816E-004  2.0297495634106874E-003
        -1.3983314819069009E-004  6.4110517558806589E-004  2.3541721874280306E-004
         1.0634351963831703E-003 -8.1406755450122025E-004  2.5592615925738735E-004
         5.5764666827480287E-004 -2.4944020394442761E-004  1.0095491375503288E-003
         8.2355304833130801E-004  4.6265598280836211E-004  1.0873683440558570E-003
         1.0554542732396804E-003  1.4711843503905700E-003 -1.9257994645781920E-004
        -5.9301436632358214E-004  1.4338243179848405E-003 -1.0518598720443608E-003
         1.7009542631394735E-004 -2.7229621441798006E-004 -1.8275874435332864E-004
        -3.9794180042660679E-004  1.1377334676086425E-003  1.5111872074405710E-004
        -2.1010779022294815E-004  2.5908254733415207E-004  1.2965840740887470E-003
         5.7014687401963509E-004  4.3663748726030592E-004 -1.4622705921930906E-004
         2.7451658006202970E-004 -1.1055104189361704E-004 -2.7011911346553111E-004
        -1.5488517944100741E-003 -4.8268639177436265E-004  1.0661735520256356E-003
         1.1223093816589575E-004  6.1336181169779956E-004 -2.4337739020697507E-004
        -8.4642821007096841E-004  2.7314900746299451E-004  4.4966165017940816E-004
        -9.0281864255762473E-004  4.6471968390255969E-004 -2.6632644265744645E-004
        -1.1909602595289546E-003  3.2546725757629527E-005 -5.5177771595208032E-005
         2.6878284876653803E-004 -1.1019214431415747E-003  6.7804196598502135E-004